NPROCS=0
This instance is clustered!
Gurobi Optimizer version 9.0.0 build v9.0.0rc2 (linux64)
Optimize a model with 50 rows, 626 columns and 1250 nonzeros
Model fingerprint: 0x59a1fc4c
Variable types: 1 continuous, 625 integer (625 binary)
Coefficient statistics:
  Matrix range     [1e+00, 1e+00]
  Objective range  [1e+00, 5e+02]
  Bounds range     [1e+00, 1e+00]
  RHS range        [1e+00, 1e+00]
Presolve removed 2 rows and 72 columns
Presolve time: 0.01s
Presolved: 48 rows, 554 columns, 1106 nonzeros
Variable types: 1 continuous, 553 integer (553 binary)

Root relaxation: objective 1.218966e+03, 40 iterations, 0.00 seconds

    Nodes    |    Current Node    |     Objective Bounds      |     Work
 Expl Unexpl |  Obj  Depth IntInf | Incumbent    BestBd   Gap | It/Node Time

     0     0 1381.40687    0    8          - 1381.40687      -     -    0s
     0     0 1577.80465    0   10          - 1577.80465      -     -    0s
 done with super cut 0
 done with super cut 1
 done with super cut 2
 done with super cut 3
 done with super cut 4
 done with super cut 5
 done with super cut 6
     0     2 1599.17652    0   46          - 1599.17652      -     -   22s
 done with super cut 7
    27    36 1659.40318    5   39          - 1620.25179      -   9.3   28s
 done with super cut 8
 done with super cut 9
   207   249 1733.89123   20    8          - 1620.25179      -   6.1   48s
 done with super cut 10
   429   404 2085.65025   27   11          - 1620.25179      -   6.2   55s
*  612   551              31    1902.8514374 1642.40939  13.7%   6.5   55s
H 3711  1804                    1858.6149070 1696.87521  8.70%   7.5   58s
H 3752  1743                    1852.6560388 1696.87521  8.41%   7.7   58s
  9973   323     cutoff   27      1852.65604 1825.01567  1.49%  10.7   60s

Cutting planes:
  Gomory: 6
  MIR: 1
  Zero half: 6
  Lazy constraints: 176

Explored 10701 nodes (115980 simplex iterations) in 60.10 seconds
Thread count was 12 (of 12 available processors)

Solution count 3: 1852.66 1858.61 1902.85 

Optimal solution found (tolerance 1.00e-04)
Best objective 1.852656038761e+03, best bound 1.852656038761e+03, gap 0.0000%

User-callback calls 24178, time in user-callback 55.36 sec
/projects/academic/josewalt/caigao/RRARP_BD/BendersDecomp/ret/model_outs/n_23_e_7_algo_4.out
 =====>>>>> Solution is written to file in <../ret/model_outs> !!!
===>> All Done!
